# Solution for model r3_t9_m3_3 Batch Number: 1
# Finished Task: 5 / 9
# Makespan: 555.0, Total Distance: 200.0, Total Time: 0.1951
# R O S F Batch
0 0 10 0.0 0.0 -1
1 1 -1 0.0 0.0 -1
2 2 5 0.0 0.0 -1
3 -1 -1 -1.0 -1.0 0
4 -1 -1 -1.0 -1.0 0
5 2 6 270.0 292.0 0
6 2 7 366.0 388.0 0
7 2 -1 499.0 528.0 0
8 -1 -1 -1.0 -1.0 0
9 -1 -1 -1.0 -1.0 0
10 0 11 475.0 499.0 0
11 0 -1 534.0 555.0 0
